54
2 0 2
2 1 3
4 2 5
5 0 1
5 3 6
5 4 5
6 1 6
6 3 3
7 0 1
7 1 5
7 3 3
7 6 6
8 2 1
8 3 6
8 5 1
9 0 2
9 1 6
9 3 3
9 5 6
9 6 6
9 7 6
10 1 3
10 2 2
10 4 5
10 9 5
11 0 6
11 3 2
11 4 3
11 5 4
11 6 1
11 8 3
11 10 4
12 5 5
12 7 1
13 0 5
13 3 4
13 4 5
13 9 6
14 2 5
14 3 5
14 5 4
14 6 4
14 10 2
14 11 1
14 12 5
15 4 2
15 5 5
15 7 3
15 8 2
15 9 5
16 1 1
16 2 1
16 3 2
16 4 5
16 5 4
16 7 1
16 13 6
16 14 5
16 15 1
17 0 6
17 2 2
17 3 1
17 4 3
17 5 2
17 8 4
17 9 2
17 10 1
17 11 3
17 12 4
17 13 6
17 14 6
17 15 3
18 1 3
18 10 4
18 11 5
18 12 2
18 14 3
18 15 5
18 16 2
18 17 1
19 1 3
19 4 4
19 5 4
19 8 6
19 10 4
19 11 2
19 12 6
19 13 2
19 16 4
19 17 1
19 18 2
20 1 1
20 6 3
20 9 2
20 10 4
20 11 6
20 12 2
20 14 5
20 17 2
21 0 5
21 2 4
21 6 5
21 7 6
21 11 1
21 12 3
21 14 2
21 15 6
21 18 1
21 19 3
22 0 6
22 1 4
22 2 5
22 3 5
22 6 5
22 7 3
22 9 2
22 10 1
22 13 1
22 14 5
22 15 1
22 16 5
22 17 4
22 18 4
22 21 4
23 1 2
23 3 5
23 4 1
23 6 6
23 9 6
23 19 6
23 21 3
23 22 2
24 0 3
24 4 6
24 7 3
24 8 4
24 9 5
24 12 4
24 16 1
24 18 5
24 19 3
24 20 1
24 22 6
24 23 2
25 1 6
25 2 3
25 4 4
25 5 4
25 8 1
25 9 5
25 11 6
25 12 4
25 13 1
25 14 6
25 16 2
25 18 3
25 20 5
25 22 6
25 23 1
25 24 6
26 1 5
26 3 5
26 4 5
26 5 3
26 8 6
26 10 4
26 11 3
26 12 1
26 13 5
26 20 4
26 21 1
26 23 2
26 24 3
26 25 1
27 0 5
27 1 5
27 2 4
27 4 5
27 6 3
27 7 5
27 8 1
27 13 2
27 16 5
27 17 3
27 19 3
27 21 1
27 22 6
27 23 1
27 24 4
27 25 5
27 26 5
28 0 4
28 1 1
28 3 2
28 5 2
28 6 1
28 7 2
28 10 1
28 16 1
28 18 3
28 20 5
28 23 1
29 2 2
29 5 2
29 6 5
29 7 3
29 8 1
29 10 4
29 11 2
29 13 6
29 15 4
29 16 3
29 19 3
29 20 5
29 21 5
29 24 6
29 25 3
29 26 6
29 28 6
30 1 3
30 3 1
30 5 4
30 8 3
30 11 2
30 16 5
30 17 6
30 23 5
30 24 2
30 26 1
30 27 4
30 29 5
31 2 5
31 4 2
31 5 5
31 9 4
31 13 6
31 17 1
31 18 2
31 19 1
31 21 5
31 22 2
31 23 6
31 24 5
31 25 2
31 26 2
31 28 5
32 1 4
32 3 6
32 6 1
32 7 4
32 17 5
32 18 1
32 19 6
32 20 4
32 21 1
32 22 5
32 25 1
32 27 3
32 28 1
32 30 3
33 2 4
33 4 6
33 8 2
33 12 3
33 13 2
33 14 2
33 15 2
33 17 6
33 19 6
33 21 2
33 24 4
33 27 2
33 29 3
33 30 4
33 32 2
34 0 3
34 1 6
34 3 3
34 4 6
34 6 3
34 7 4
34 9 5
34 10 1
34 14 4
34 15 5
34 16 4
34 17 6
34 18 6
34 24 2
34 25 2
34 29 1
34 30 4
34 32 5
35 3 5
35 5 3
35 12 3
35 14 4
35 15 6
35 18 5
35 20 6
35 22 1
35 23 5
35 24 2
35 26 2
35 27 4
35 30 5
35 31 5
35 32 5
35 33 1
35 34 1
36 1 1
36 2 6
36 7 6
36 8 6
36 9 5
36 13 2
36 15 6
36 17 6
36 18 2
36 21 1
36 23 2
36 27 5
36 33 6
37 7 5
37 8 4
37 9 3
37 10 5
37 11 3
37 12 5
37 13 1
37 16 6
37 17 4
37 18 2
37 20 1
37 23 6
37 24 3
37 25 1
37 27 3
37 29 2
37 30 4
37 31 5
37 33 2
37 34 4
37 35 4
38 1 3
38 2 3
38 3 6
38 5 6
38 6 5
38 9 6
38 10 4
38 12 3
38 13 5
38 15 6
38 16 6
38 17 5
38 18 3
38 21 1
38 24 1
38 26 4
38 29 5
38 30 6
38 31 6
38 34 2
38 36 6
38 37 5
39 1 4
39 4 5
39 5 1
39 6 6
39 14 4
39 16 6
39 18 6
39 20 5
39 23 1
39 26 2
39 27 3
39 31 3
39 33 6
39 34 5
39 35 6
39 36 1
39 38 5
40 0 3
40 1 2
40 2 2
40 5 2
40 6 4
40 9 5
40 11 5
40 13 1
40 14 1
40 17 2
40 24 4
40 26 6
40 28 6
40 31 2
40 32 3
40 33 5
40 35 6
40 36 1
41 0 6
41 2 5
41 3 2
41 4 4
41 5 5
41 6 6
41 12 5
41 13 2
41 15 1
41 21 2
41 22 6
41 23 4
41 25 4
41 26 1
41 28 4
41 30 2
41 34 1
41 35 1
41 37 5
41 38 5
42 0 5
42 4 5
42 7 2
42 10 3
42 12 4
42 14 3
42 16 5
42 18 3
42 19 6
42 20 4
42 24 2
42 25 2
42 27 5
42 28 2
42 30 6
42 31 4
42 34 6
42 35 6
42 37 4
42 39 4
43 1 4
43 3 1
43 4 4
43 5 3
43 7 4
43 9 3
43 10 3
43 11 1
43 14 2
43 17 1
43 18 4
43 22 5
43 25 4
43 29 3
43 33 2
43 34 5
43 36 1
43 39 4
43 40 5
43 41 4
44 1 3
44 5 5
44 7 5
44 8 6
44 9 4
44 11 5
44 14 2
44 15 6
44 16 4
44 18 3
44 20 6
44 21 3
44 22 5
44 23 5
44 25 3
44 28 6
44 30 4
44 33 4
44 35 2
44 36 2
44 38 4
44 41 1
45 1 3
45 2 1
45 3 3
45 11 4
45 12 1
45 14 5
45 16 4
45 17 6
45 19 5
45 22 6
45 25 5
45 26 1
45 27 2
45 28 4
45 29 5
45 31 6
45 32 1
45 36 4
45 37 4
45 38 5
46 1 5
46 3 1
46 5 5
46 6 6
46 7 5
46 8 3
46 9 1
46 10 5
46 11 1
46 13 5
46 19 6
46 20 2
46 21 2
46 22 5
46 24 1
46 25 6
46 26 3
46 27 2
46 28 6
46 29 3
46 32 5
46 34 6
46 40 4
46 41 2
46 42 1
46 45 5
47 3 5
47 5 5
47 6 4
47 8 6
47 9 6
47 12 6
47 13 6
47 14 2
47 16 1
47 17 3
47 18 5
47 19 2
47 20 4
47 24 3
47 25 1
47 27 2
47 32 2
47 33 5
47 34 6
47 36 3
47 40 1
47 43 5
47 44 5
48 2 1
48 3 1
48 7 5
48 12 1
48 13 4
48 15 2
48 19 3
48 20 3
48 21 5
48 22 2
48 23 3
48 24 4
48 25 1
48 28 4
48 29 2
48 31 2
48 32 2
48 35 4
48 36 2
48 38 2
48 39 5
48 41 6
48 42 4
48 44 3
48 45 2
48 47 2
49 2 1
49 3 5
49 5 3
49 6 5
49 7 5
49 8 3
49 9 5
49 11 5
49 13 4
49 14 2
49 16 1
49 19 4
49 20 6
49 21 1
49 22 6
49 23 2
49 24 4
49 29 3
49 30 3
49 31 4
49 32 5
49 35 5
49 36 1
49 38 3
49 42 3
49 43 2
49 44 4
49 47 2
50 0 3
50 1 3
50 3 1
50 4 6
50 5 5
50 6 5
50 8 4
50 10 4
50 11 3
50 14 1
50 15 5
50 16 4
50 17 1
50 19 5
50 22 4
50 23 5
50 24 5
50 25 6
50 26 1
50 27 5
50 28 1
50 29 4
50 31 3
50 34 5
50 35 3
50 36 6
50 38 4
50 44 6
50 45 5
50 46 5
51 0 1
51 3 4
51 4 4
51 5 2
51 7 4
51 12 1
51 14 3
51 15 5
51 17 5
51 20 2
51 22 4
51 24 2
51 25 5
51 26 1
51 30 6
51 31 4
51 33 6
51 34 3
51 35 2
51 36 1
51 37 1
51 40 2
51 41 2
51 43 4
51 44 6
51 45 1
51 47 1
51 48 4
52 0 5
52 1 3
52 2 1
52 3 4
52 4 1
52 5 6
52 7 1
52 10 2
52 11 6
52 13 5
52 14 3
52 18 5
52 20 2
52 21 4
52 24 6
52 27 1
52 29 4
52 30 3
52 36 4
52 37 2
52 39 5
52 42 1
52 43 1
52 45 6
52 46 1
52 50 3
53 0 5
53 3 2
53 4 5
53 6 3
53 8 3
53 11 4
53 14 5
53 19 4
53 23 1
53 24 2
53 26 2
53 27 2
53 28 2
53 30 2
53 34 2
53 35 4
53 36 6
53 39 4
53 41 4
53 43 2
53 44 5
53 45 3
53 46 3
53 51 3
